p cnf 953 2444
51 -2 -1 0
-51 2 0
-51 1 0
52 -51 -3 0
-52 51 0
-52 3 0
53 -688 -689 0
-53 688 0
-53 689 0
54 -53 -690 0
-54 53 0
-54 690 0
55 -691 -692 0
-55 691 0
-55 692 0
56 -693 -7 0
-56 693 0
-56 7 0
57 -56 -694 0
-57 56 0
-57 694 0
58 -695 -55 0
-58 695 0
-58 55 0
59 -696 -689 0
-59 696 0
-59 689 0
60 -59 -697 0
-60 59 0
-60 697 0
61 -698 -58 0
-61 698 0
-61 58 0
62 -699 -2 0
-62 699 0
-62 2 0
63 -62 -13 0
-63 62 0
-63 13 0
64 -700 -61 0
-64 700 0
-64 61 0
65 -701 -14 0
-65 701 0
-65 14 0
66 -65 -13 0
-66 65 0
-66 13 0
67 -702 -64 0
-67 702 0
-67 64 0
68 -16 -2 0
-68 16 0
-68 2 0
69 -68 -703 0
-69 68 0
-69 703 0
70 -704 -67 0
-70 704 0
-70 67 0
71 -19 -18 0
-71 19 0
-71 18 0
72 -71 -20 0
-72 71 0
-72 20 0
73 -705 -70 0
-73 705 0
-73 70 0
74 -706 -707 0
-74 706 0
-74 707 0
75 -74 -18 0
-75 74 0
-75 18 0
76 -708 -73 0
-76 708 0
-76 73 0
77 -22 -20 0
-77 22 0
-77 20 0
78 -77 -23 0
-78 77 0
-78 23 0
79 -709 -76 0
-79 709 0
-79 76 0
80 -710 -707 0
-80 710 0
-80 707 0
81 -80 -24 0
-81 80 0
-81 24 0
82 -711 -79 0
-82 711 0
-82 79 0
83 -712 -24 0
-83 712 0
-83 24 0
84 -83 -6 0
-84 83 0
-84 6 0
85 -713 -82 0
-85 713 0
-85 82 0
86 -714 -715 0
-86 714 0
-86 715 0
87 -86 -22 0
-87 86 0
-87 22 0
88 -716 -85 0
-88 716 0
-88 85 0
89 -28 -693 0
-89 28 0
-89 693 0
90 -89 -23 0
-90 89 0
-90 23 0
91 -717 -88 0
-91 717 0
-91 88 0
92 -718 -719 0
-92 718 0
-92 719 0
93 -92 -31 0
-93 92 0
-93 31 0
94 -720 -91 0
-94 720 0
-94 91 0
95 -721 -24 0
-95 721 0
-95 24 0
96 -95 -722 0
-96 95 0
-96 722 0
97 -723 -94 0
-97 723 0
-97 94 0
98 -34 -12 0
-98 34 0
-98 12 0
99 -98 -16 0
-99 98 0
-99 16 0
100 -724 -97 0
-100 724 0
-100 97 0
101 -35 -725 0
-101 35 0
-101 725 0
102 -101 -36 0
-102 101 0
-102 36 0
103 -726 -100 0
-103 726 0
-103 100 0
104 -37 -35 0
-104 37 0
-104 35 0
105 -104 -38 0
-105 104 0
-105 38 0
106 -727 -103 0
-106 727 0
-106 103 0
107 -35 -710 0
-107 35 0
-107 710 0
108 -107 -728 0
-108 107 0
-108 728 0
109 -729 -106 0
-109 729 0
-109 106 0
110 -40 -39 0
-110 40 0
-110 39 0
111 -110 -38 0
-111 110 0
-111 38 0
112 -730 -109 0
-112 730 0
-112 109 0
113 -731 -14 0
-113 731 0
-113 14 0
114 -113 -26 0
-114 113 0
-114 26 0
115 -732 -112 0
-115 732 0
-115 112 0
116 -733 -731 0
-116 733 0
-116 731 0
117 -116 -42 0
-117 116 0
-117 42 0
118 -734 -115 0
-118 734 0
-118 115 0
119 -43 -12 0
-119 43 0
-119 12 0
120 -119 -16 0
-120 119 0
-120 16 0
121 -735 -118 0
-121 735 0
-121 118 0
122 -44 -707 0
-122 44 0
-122 707 0
123 -122 -701 0
-123 122 0
-123 701 0
124 -736 -121 0
-124 736 0
-124 121 0
125 -737 -17 0
-125 737 0
-125 17 0
126 -125 -22 0
-126 125 0
-126 22 0
127 -738 -124 0
-127 738 0
-127 124 0
128 -739 -43 0
-128 739 0
-128 43 0
129 -128 -46 0
-129 128 0
-129 46 0
130 -740 -127 0
-130 740 0
-130 127 0
131 -47 -35 0
-131 47 0
-131 35 0
132 -131 -728 0
-132 131 0
-132 728 0
133 -741 -130 0
-133 741 0
-133 130 0
134 -19 -696 0
-134 19 0
-134 696 0
135 -134 -693 0
-135 134 0
-135 693 0
136 -742 -133 0
-136 742 0
-136 133 0
137 -45 -39 0
-137 45 0
-137 39 0
138 -137 -701 0
-138 137 0
-138 701 0
139 -743 -136 0
-139 743 0
-139 136 0
140 -731 -744 0
-140 731 0
-140 744 0
141 -140 -22 0
-141 140 0
-141 22 0
142 -745 -139 0
-142 745 0
-142 139 0
143 -737 -4 0
-143 737 0
-143 4 0
144 -143 -746 0
-144 143 0
-144 746 0
145 -747 -142 0
-145 747 0
-145 142 0
146 -41 -32 0
-146 41 0
-146 32 0
147 -146 -697 0
-147 146 0
-147 697 0
148 -748 -145 0
-148 748 0
-148 145 0
149 -43 -5 0
-149 43 0
-149 5 0
150 -149 -728 0
-150 149 0
-150 728 0
151 -749 -148 0
-151 749 0
-151 148 0
152 -36 -33 0
-152 36 0
-152 33 0
153 -152 -750 0
-153 152 0
-153 750 0
154 -751 -151 0
-154 751 0
-154 151 0
155 -752 -753 0
-155 752 0
-155 753 0
156 -155 -715 0
-156 155 0
-156 715 0
157 -754 -154 0
-157 754 0
-157 154 0
158 -719 -725 0
-158 719 0
-158 725 0
159 -158 -16 0
-159 158 0
-159 16 0
160 -755 -157 0
-160 755 0
-160 157 0
161 -756 -6 0
-161 756 0
-161 6 0
162 -161 -746 0
-162 161 0
-162 746 0
163 -757 -160 0
-163 757 0
-163 160 0
164 -37 -694 0
-164 37 0
-164 694 0
165 -164 -758 0
-165 164 0
-165 758 0
166 -759 -163 0
-166 759 0
-166 163 0
167 -47 -760 0
-167 47 0
-167 760 0
168 -167 -750 0
-168 167 0
-168 750 0
169 -761 -166 0
-169 761 0
-169 166 0
170 -739 -3 0
-170 739 0
-170 3 0
171 -170 -762 0
-171 170 0
-171 762 0
172 -763 -169 0
-172 763 0
-172 169 0
173 -739 -29 0
-173 739 0
-173 29 0
174 -173 -25 0
-174 173 0
-174 25 0
175 -764 -172 0
-175 764 0
-175 172 0
176 -721 -753 0
-176 721 0
-176 753 0
177 -176 -3 0
-177 176 0
-177 3 0
178 -765 -175 0
-178 765 0
-178 175 0
179 -766 -767 0
-179 766 0
-179 767 0
180 -179 -746 0
-180 179 0
-180 746 0
181 -768 -178 0
-181 768 0
-181 178 0
182 -737 -18 0
-182 737 0
-182 18 0
183 -182 -769 0
-183 182 0
-183 769 0
184 -770 -181 0
-184 770 0
-184 181 0
185 -771 -712 0
-185 771 0
-185 712 0
186 -185 -703 0
-186 185 0
-186 703 0
187 -772 -184 0
-187 772 0
-187 184 0
188 -41 -752 0
-188 41 0
-188 752 0
189 -188 -697 0
-189 188 0
-189 697 0
190 -773 -187 0
-190 773 0
-190 187 0
191 -769 -18 0
-191 769 0
-191 18 0
192 -191 -746 0
-192 191 0
-192 746 0
193 -774 -190 0
-193 774 0
-193 190 0
194 -32 -710 0
-194 32 0
-194 710 0
195 -194 -714 0
-195 194 0
-195 714 0
196 -775 -193 0
-196 775 0
-196 193 0
197 -122 -776 0
-197 122 0
-197 776 0
198 -777 -196 0
-198 777 0
-198 196 0
199 -771 -10 0
-199 771 0
-199 10 0
200 -199 -728 0
-200 199 0
-200 728 0
201 -778 -198 0
-201 778 0
-201 198 0
202 -26 -15 0
-202 26 0
-202 15 0
203 -202 -22 0
-203 202 0
-203 22 0
204 -779 -201 0
-204 779 0
-204 201 0
205 -739 -707 0
-205 739 0
-205 707 0
206 -205 -2 0
-206 205 0
-206 2 0
207 -780 -204 0
-207 780 0
-207 204 0
208 -35 -15 0
-208 35 0
-208 15 0
209 -208 -728 0
-209 208 0
-209 728 0
210 -781 -207 0
-210 781 0
-210 207 0
211 -706 -699 0
-211 706 0
-211 699 0
212 -211 -3 0
-212 211 0
-212 3 0
213 -782 -210 0
-213 782 0
-213 210 0
214 -783 -9 0
-214 783 0
-214 9 0
215 -214 -769 0
-215 214 0
-215 769 0
216 -784 -213 0
-216 784 0
-216 213 0
217 -137 -694 0
-217 137 0
-217 694 0
218 -785 -216 0
-218 785 0
-218 216 0
219 -786 -706 0
-219 786 0
-219 706 0
220 -219 -750 0
-220 219 0
-220 750 0
221 -787 -218 0
-221 787 0
-221 218 0
222 -39 -706 0
-222 39 0
-222 706 0
223 -222 -48 0
-223 222 0
-223 48 0
224 -788 -221 0
-224 788 0
-224 221 0
225 -752 -12 0
-225 752 0
-225 12 0
226 -225 -789 0
-226 225 0
-226 789 0
227 -790 -224 0
-227 790 0
-227 224 0
228 -706 -15 0
-228 706 0
-228 15 0
229 -228 -3 0
-229 228 0
-229 3 0
230 -791 -227 0
-230 791 0
-230 227 0
231 -25 -3 0
-231 25 0
-231 3 0
232 -231 -33 0
-232 231 0
-232 33 0
233 -792 -230 0
-233 792 0
-233 230 0
234 -40 -710 0
-234 40 0
-234 710 0
235 -234 -24 0
-235 234 0
-235 24 0
236 -793 -233 0
-236 793 0
-236 233 0
237 -26 -9 0
-237 26 0
-237 9 0
238 -237 -776 0
-238 237 0
-238 776 0
239 -794 -236 0
-239 794 0
-239 236 0
240 -721 -30 0
-240 721 0
-240 30 0
241 -240 -746 0
-241 240 0
-241 746 0
242 -795 -239 0
-242 795 0
-242 239 0
243 -718 -688 0
-243 718 0
-243 688 0
244 -243 -750 0
-244 243 0
-244 750 0
245 -796 -242 0
-245 796 0
-245 242 0
246 -11 -690 0
-246 11 0
-246 690 0
247 -246 -22 0
-247 246 0
-247 22 0
248 -797 -245 0
-248 797 0
-248 245 0
249 -789 -731 0
-249 789 0
-249 731 0
250 -249 -31 0
-250 249 0
-250 31 0
251 -798 -248 0
-251 798 0
-251 248 0
252 -30 -707 0
-252 30 0
-252 707 0
253 -252 -693 0
-253 252 0
-253 693 0
254 -799 -251 0
-254 799 0
-254 251 0
255 -46 -725 0
-255 46 0
-255 725 0
256 -255 -47 0
-256 255 0
-256 47 0
257 -800 -254 0
-257 800 0
-257 254 0
258 -699 -744 0
-258 699 0
-258 744 0
259 -258 -769 0
-259 258 0
-259 769 0
260 -801 -257 0
-260 801 0
-260 257 0
261 -32 -753 0
-261 32 0
-261 753 0
262 -261 -789 0
-262 261 0
-262 789 0
263 -802 -260 0
-263 802 0
-263 260 0
264 -37 -36 0
-264 37 0
-264 36 0
265 -264 -762 0
-265 264 0
-265 762 0
266 -803 -263 0
-266 803 0
-266 263 0
267 -26 -6 0
-267 26 0
-267 6 0
268 -267 -31 0
-268 267 0
-268 31 0
269 -804 -266 0
-269 804 0
-269 266 0
270 -693 -689 0
-270 693 0
-270 689 0
271 -270 -38 0
-271 270 0
-271 38 0
272 -805 -269 0
-272 805 0
-272 269 0
273 -725 -24 0
-273 725 0
-273 24 0
274 -273 -38 0
-274 273 0
-274 38 0
275 -806 -272 0
-275 806 0
-275 272 0
276 -25 -752 0
-276 25 0
-276 752 0
277 -276 -31 0
-277 276 0
-277 31 0
278 -807 -275 0
-278 807 0
-278 275 0
279 -739 -699 0
-279 739 0
-279 699 0
280 -279 -756 0
-280 279 0
-280 756 0
281 -808 -278 0
-281 808 0
-281 278 0
282 -43 -737 0
-282 43 0
-282 737 0
283 -282 -11 0
-283 282 0
-283 11 0
284 -809 -281 0
-284 809 0
-284 281 0
285 -20 -14 0
-285 20 0
-285 14 0
286 -285 -24 0
-286 285 0
-286 24 0
287 -810 -284 0
-287 810 0
-287 284 0
288 -35 -694 0
-288 35 0
-288 694 0
289 -288 -789 0
-289 288 0
-289 789 0
290 -811 -287 0
-290 811 0
-290 287 0
291 -737 -37 0
-291 737 0
-291 37 0
292 -291 -36 0
-292 291 0
-292 36 0
293 -812 -290 0
-293 812 0
-293 290 0
294 -27 -706 0
-294 27 0
-294 706 0
295 -294 -746 0
-295 294 0
-295 746 0
296 -813 -293 0
-296 813 0
-296 293 0
297 -721 -12 0
-297 721 0
-297 12 0
298 -297 -689 0
-298 297 0
-298 689 0
299 -814 -296 0
-299 814 0
-299 296 0
300 -38 -744 0
-300 38 0
-300 744 0
301 -300 -26 0
-301 300 0
-301 26 0
302 -815 -299 0
-302 815 0
-302 299 0
303 -49 -39 0
-303 49 0
-303 39 0
304 -303 -33 0
-304 303 0
-304 33 0
305 -816 -302 0
-305 816 0
-305 302 0
306 -49 -817 0
-306 49 0
-306 817 0
307 -306 -697 0
-307 306 0
-307 697 0
308 -818 -305 0
-308 818 0
-308 305 0
309 -35 -783 0
-309 35 0
-309 783 0
310 -309 -760 0
-310 309 0
-310 760 0
311 -819 -308 0
-311 819 0
-311 308 0
312 -297 -694 0
-312 297 0
-312 694 0
313 -820 -311 0
-313 820 0
-313 311 0
314 -20 -12 0
-314 20 0
-314 12 0
315 -314 -28 0
-315 314 0
-315 28 0
316 -821 -313 0
-316 821 0
-316 313 0
317 -21 -4 0
-317 21 0
-317 4 0
318 -317 -38 0
-318 317 0
-318 38 0
319 -822 -316 0
-319 822 0
-319 316 0
320 -24 -703 0
-320 24 0
-320 703 0
321 -320 -786 0
-321 320 0
-321 786 0
322 -823 -319 0
-322 823 0
-322 319 0
323 -10 -744 0
-323 10 0
-323 744 0
324 -323 -756 0
-324 323 0
-324 756 0
325 -824 -322 0
-325 824 0
-325 322 0
326 -49 -21 0
-326 49 0
-326 21 0
327 -326 -715 0
-327 326 0
-327 715 0
328 -825 -325 0
-328 825 0
-328 325 0
329 -771 -744 0
-329 771 0
-329 744 0
330 -329 -31 0
-330 329 0
-330 31 0
331 -826 -328 0
-331 826 0
-331 328 0
332 -43 -783 0
-332 43 0
-332 783 0
333 -332 -42 0
-333 332 0
-333 42 0
334 -827 -331 0
-334 827 0
-334 331 0
335 -28 -9 0
-335 28 0
-335 9 0
336 -335 -697 0
-336 335 0
-336 697 0
337 -828 -334 0
-337 828 0
-337 334 0
338 -719 -694 0
-338 719 0
-338 694 0
339 -338 -829 0
-339 338 0
-339 829 0
340 -830 -337 0
-340 830 0
-340 337 0
341 -285 -31 0
-341 285 0
-341 31 0
342 -831 -340 0
-342 831 0
-342 340 0
343 -715 -8 0
-343 715 0
-343 8 0
344 -343 -750 0
-344 343 0
-344 750 0
345 -832 -342 0
-345 832 0
-345 342 0
346 -42 -16 0
-346 42 0
-346 16 0
347 -346 -36 0
-347 346 0
-347 36 0
348 -833 -345 0
-348 833 0
-348 345 0
349 -44 -4 0
-349 44 0
-349 4 0
350 -349 -760 0
-350 349 0
-350 760 0
351 -834 -348 0
-351 834 0
-351 348 0
352 -49 -697 0
-352 49 0
-352 697 0
353 -352 -829 0
-353 352 0
-353 829 0
354 -835 -351 0
-354 835 0
-354 351 0
355 -817 -693 0
-355 817 0
-355 693 0
356 -355 -753 0
-356 355 0
-356 753 0
357 -836 -354 0
-357 836 0
-357 354 0
358 -837 -688 0
-358 837 0
-358 688 0
359 -358 -829 0
-359 358 0
-359 829 0
360 -838 -357 0
-360 838 0
-360 357 0
361 -739 -18 0
-361 739 0
-361 18 0
362 -361 -13 0
-362 361 0
-362 13 0
363 -839 -360 0
-363 839 0
-363 360 0
364 -44 -769 0
-364 44 0
-364 769 0
365 -364 -829 0
-365 364 0
-365 829 0
366 -840 -363 0
-366 840 0
-366 363 0
367 -18 -744 0
-367 18 0
-367 744 0
368 -367 -46 0
-368 367 0
-368 46 0
369 -841 -366 0
-369 841 0
-369 366 0
370 -842 -24 0
-370 842 0
-370 24 0
371 -370 -728 0
-371 370 0
-371 728 0
372 -843 -369 0
-372 843 0
-372 369 0
373 -715 -18 0
-373 715 0
-373 18 0
374 -373 -750 0
-374 373 0
-374 750 0
375 -844 -372 0
-375 844 0
-375 372 0
376 -44 -696 0
-376 44 0
-376 696 0
377 -376 -33 0
-377 376 0
-377 33 0
378 -845 -375 0
-378 845 0
-378 375 0
379 -25 -17 0
-379 25 0
-379 17 0
380 -379 -27 0
-380 379 0
-380 27 0
381 -846 -378 0
-381 846 0
-381 378 0
382 -769 -706 0
-382 769 0
-382 706 0
383 -382 -26 0
-383 382 0
-383 26 0
384 -847 -381 0
-384 847 0
-384 381 0
385 -30 -25 0
-385 30 0
-385 25 0
386 -385 -46 0
-386 385 0
-386 46 0
387 -848 -384 0
-387 848 0
-387 384 0
388 -21 -9 0
-388 21 0
-388 9 0
389 -388 -22 0
-389 388 0
-389 22 0
390 -849 -387 0
-390 849 0
-390 387 0
391 -28 -710 0
-391 28 0
-391 710 0
392 -391 -17 0
-392 391 0
-392 17 0
393 -850 -390 0
-393 850 0
-393 390 0
394 -837 -851 0
-394 837 0
-394 851 0
395 -394 -753 0
-395 394 0
-395 753 0
396 -852 -393 0
-396 852 0
-396 393 0
397 -42 -690 0
-397 42 0
-397 690 0
398 -397 -789 0
-398 397 0
-398 789 0
399 -853 -396 0
-399 853 0
-399 396 0
400 -44 -760 0
-400 44 0
-400 760 0
401 -400 -23 0
-401 400 0
-401 23 0
402 -854 -399 0
-402 854 0
-402 399 0
403 -756 -5 0
-403 756 0
-403 5 0
404 -403 -26 0
-404 403 0
-404 26 0
405 -855 -402 0
-405 855 0
-405 402 0
406 -34 -10 0
-406 34 0
-406 10 0
407 -406 -3 0
-407 406 0
-407 3 0
408 -856 -405 0
-408 856 0
-408 405 0
409 -721 -2 0
-409 721 0
-409 2 0
410 -409 -728 0
-410 409 0
-410 728 0
411 -857 -408 0
-411 857 0
-411 408 0
412 -48 -817 0
-412 48 0
-412 817 0
413 -412 -23 0
-413 412 0
-413 23 0
414 -858 -411 0
-414 858 0
-414 411 0
415 -243 -27 0
-415 243 0
-415 27 0
416 -859 -414 0
-416 859 0
-416 414 0
417 -712 -1 0
-417 712 0
-417 1 0
418 -417 -728 0
-418 417 0
-418 728 0
419 -860 -416 0
-419 860 0
-419 416 0
420 -737 -2 0
-420 737 0
-420 2 0
421 -420 -33 0
-421 420 0
-421 33 0
422 -861 -419 0
-422 861 0
-422 419 0
423 -18 -9 0
-423 18 0
-423 9 0
424 -423 -3 0
-424 423 0
-424 3 0
425 -862 -422 0
-425 862 0
-425 422 0
426 -706 -753 0
-426 706 0
-426 753 0
427 -426 -715 0
-427 426 0
-427 715 0
428 -863 -425 0
-428 863 0
-428 425 0
429 -864 -771 0
-429 864 0
-429 771 0
430 -429 -28 0
-430 429 0
-430 28 0
431 -865 -428 0
-431 865 0
-431 428 0
432 -25 -6 0
-432 25 0
-432 6 0
433 -432 -786 0
-433 432 0
-433 786 0
434 -866 -431 0
-434 866 0
-434 431 0
435 -49 -752 0
-435 49 0
-435 752 0
436 -435 -817 0
-436 435 0
-436 817 0
437 -867 -434 0
-437 867 0
-437 434 0
438 -739 -758 0
-438 739 0
-438 758 0
439 -438 -829 0
-439 438 0
-439 829 0
440 -868 -437 0
-440 868 0
-440 437 0
441 -8 -688 0
-441 8 0
-441 688 0
442 -441 -789 0
-442 441 0
-442 789 0
443 -869 -440 0
-443 869 0
-443 440 0
444 -45 -40 0
-444 45 0
-444 40 0
445 -444 -38 0
-445 444 0
-445 38 0
446 -870 -443 0
-446 870 0
-446 443 0
447 -34 -697 0
-447 34 0
-447 697 0
448 -447 -728 0
-448 447 0
-448 728 0
449 -871 -446 0
-449 871 0
-449 446 0
450 -718 -1 0
-450 718 0
-450 1 0
451 -450 -42 0
-451 450 0
-451 42 0
452 -872 -449 0
-452 872 0
-452 449 0
453 -864 -2 0
-453 864 0
-453 2 0
454 -453 -690 0
-454 453 0
-454 690 0
455 -873 -452 0
-455 873 0
-455 452 0
456 -15 -699 0
-456 15 0
-456 699 0
457 -456 -6 0
-457 456 0
-457 6 0
458 -874 -455 0
-458 874 0
-458 455 0
459 -43 -688 0
-459 43 0
-459 688 0
460 -459 -42 0
-460 459 0
-460 42 0
461 -875 -458 0
-461 875 0
-461 458 0
462 -65 -24 0
-462 65 0
-462 24 0
463 -876 -461 0
-463 876 0
-463 461 0
464 -24 -5 0
-464 24 0
-464 5 0
465 -464 -766 0
-465 464 0
-465 766 0
466 -877 -463 0
-466 877 0
-466 463 0
467 -18 -10 0
-467 18 0
-467 10 0
468 -467 -9 0
-468 467 0
-468 9 0
469 -878 -466 0
-469 878 0
-469 466 0
470 -706 -12 0
-470 706 0
-470 12 0
471 -470 -756 0
-471 470 0
-471 756 0
472 -879 -469 0
-472 879 0
-472 469 0
473 -22 -697 0
-473 22 0
-473 697 0
474 -473 -23 0
-474 473 0
-474 23 0
475 -880 -472 0
-475 880 0
-475 472 0
476 -714 -12 0
-476 714 0
-476 12 0
477 -476 -23 0
-477 476 0
-477 23 0
478 -881 -475 0
-478 881 0
-478 475 0
479 -317 -41 0
-479 317 0
-479 41 0
480 -882 -478 0
-480 882 0
-480 478 0
481 -786 -15 0
-481 786 0
-481 15 0
482 -481 -31 0
-482 481 0
-482 31 0
483 -883 -480 0
-483 883 0
-483 480 0
484 -40 -32 0
-484 40 0
-484 32 0
485 -484 -690 0
-485 484 0
-485 690 0
486 -884 -483 0
-486 884 0
-486 483 0
487 -28 -25 0
-487 28 0
-487 25 0
488 -487 -46 0
-488 487 0
-488 46 0
489 -885 -486 0
-489 885 0
-489 486 0
490 -851 -688 0
-490 851 0
-490 688 0
491 -490 -22 0
-491 490 0
-491 22 0
492 -886 -489 0
-492 886 0
-492 489 0
493 -44 -1 0
-493 44 0
-493 1 0
494 -493 -786 0
-494 493 0
-494 786 0
495 -887 -492 0
-495 887 0
-495 492 0
496 -718 -696 0
-496 718 0
-496 696 0
497 -496 -722 0
-497 496 0
-497 722 0
498 -888 -495 0
-498 888 0
-498 495 0
499 -29 -706 0
-499 29 0
-499 706 0
500 -499 -758 0
-500 499 0
-500 758 0
501 -889 -498 0
-501 889 0
-501 498 0
502 -36 -1 0
-502 36 0
-502 1 0
503 -502 -23 0
-503 502 0
-503 23 0
504 -890 -501 0
-504 890 0
-504 501 0
505 -731 -25 0
-505 731 0
-505 25 0
506 -505 -27 0
-506 505 0
-506 27 0
507 -891 -504 0
-507 891 0
-507 504 0
508 -48 -771 0
-508 48 0
-508 771 0
509 -508 -776 0
-509 508 0
-509 776 0
510 -892 -507 0
-510 892 0
-510 507 0
511 -29 -4 0
-511 29 0
-511 4 0
512 -511 -23 0
-512 511 0
-512 23 0
513 -893 -510 0
-513 893 0
-513 510 0
514 -715 -3 0
-514 715 0
-514 3 0
515 -514 -690 0
-515 514 0
-515 690 0
516 -894 -513 0
-516 894 0
-516 513 0
517 -33 -725 0
-517 33 0
-517 725 0
518 -517 -27 0
-518 517 0
-518 27 0
519 -895 -516 0
-519 895 0
-519 516 0
520 -44 -744 0
-520 44 0
-520 744 0
521 -520 -30 0
-521 520 0
-521 30 0
522 -896 -519 0
-522 896 0
-522 519 0
523 -721 -701 0
-523 721 0
-523 701 0
524 -523 -3 0
-524 523 0
-524 3 0
525 -897 -522 0
-525 897 0
-525 522 0
526 -722 -710 0
-526 722 0
-526 710 0
527 -526 -690 0
-527 526 0
-527 690 0
528 -898 -525 0
-528 898 0
-528 525 0
529 -36 -12 0
-529 36 0
-529 12 0
530 -529 -13 0
-530 529 0
-530 13 0
531 -899 -528 0
-531 899 0
-531 528 0
532 -725 -20 0
-532 725 0
-532 20 0
533 -532 -13 0
-533 532 0
-533 13 0
534 -900 -531 0
-534 900 0
-534 531 0
535 -776 -722 0
-535 776 0
-535 722 0
536 -535 -13 0
-536 535 0
-536 13 0
537 -901 -534 0
-537 901 0
-537 534 0
538 -837 -34 0
-538 837 0
-538 34 0
539 -538 -786 0
-539 538 0
-539 786 0
540 -902 -537 0
-540 902 0
-540 537 0
541 -49 -753 0
-541 49 0
-541 753 0
542 -541 -690 0
-542 541 0
-542 690 0
543 -903 -540 0
-543 903 0
-543 540 0
544 -30 -693 0
-544 30 0
-544 693 0
545 -544 -694 0
-545 544 0
-545 694 0
546 -904 -543 0
-546 904 0
-546 543 0
547 -851 -690 0
-547 851 0
-547 690 0
548 -547 -750 0
-548 547 0
-548 750 0
549 -905 -546 0
-549 905 0
-549 546 0
550 -752 -817 0
-550 752 0
-550 817 0
551 -550 -715 0
-551 550 0
-551 715 0
552 -906 -549 0
-552 906 0
-552 549 0
553 -783 -688 0
-553 783 0
-553 688 0
554 -553 -42 0
-554 553 0
-554 42 0
555 -907 -552 0
-555 907 0
-555 552 0
556 -403 -22 0
-556 403 0
-556 22 0
557 -908 -555 0
-557 908 0
-557 555 0
558 -40 -30 0
-558 40 0
-558 30 0
559 -558 -2 0
-559 558 0
-559 2 0
560 -909 -557 0
-560 909 0
-560 557 0
561 -228 -9 0
-561 228 0
-561 9 0
562 -910 -560 0
-562 910 0
-562 560 0
563 -45 -14 0
-563 45 0
-563 14 0
564 -563 -766 0
-564 563 0
-564 766 0
565 -911 -562 0
-565 911 0
-565 562 0
566 -40 -715 0
-566 40 0
-566 715 0
567 -566 -48 0
-567 566 0
-567 48 0
568 -912 -565 0
-568 912 0
-568 565 0
569 -769 -767 0
-569 769 0
-569 767 0
570 -569 -26 0
-570 569 0
-570 26 0
571 -913 -568 0
-571 913 0
-571 568 0
572 -25 -689 0
-572 25 0
-572 689 0
573 -572 -737 0
-573 572 0
-573 737 0
574 -914 -571 0
-574 914 0
-574 571 0
575 -49 -701 0
-575 49 0
-575 701 0
576 -575 -756 0
-576 575 0
-576 756 0
577 -915 -574 0
-577 915 0
-577 574 0
578 -722 -9 0
-578 722 0
-578 9 0
579 -578 -703 0
-579 578 0
-579 703 0
580 -916 -577 0
-580 916 0
-580 577 0
581 -26 -701 0
-581 26 0
-581 701 0
582 -581 -786 0
-582 581 0
-582 786 0
583 -917 -580 0
-583 917 0
-583 580 0
584 -24 -756 0
-584 24 0
-584 756 0
585 -584 -746 0
-585 584 0
-585 746 0
586 -918 -583 0
-586 918 0
-586 583 0
587 -45 -706 0
-587 45 0
-587 706 0
588 -587 -36 0
-588 587 0
-588 36 0
589 -919 -586 0
-589 919 0
-589 586 0
590 -14 -753 0
-590 14 0
-590 753 0
591 -590 -703 0
-591 590 0
-591 703 0
592 -920 -589 0
-592 920 0
-592 589 0
593 -739 -725 0
-593 739 0
-593 725 0
594 -593 -789 0
-594 593 0
-594 789 0
595 -921 -592 0
-595 921 0
-595 592 0
596 -33 -29 0
-596 33 0
-596 29 0
597 -596 -776 0
-597 596 0
-597 776 0
598 -922 -595 0
-598 922 0
-598 595 0
599 -710 -7 0
-599 710 0
-599 7 0
600 -599 -20 0
-600 599 0
-600 20 0
601 -923 -598 0
-601 923 0
-601 598 0
602 -739 -696 0
-602 739 0
-602 696 0
603 -602 -31 0
-603 602 0
-603 31 0
604 -924 -601 0
-604 924 0
-604 601 0
605 -842 -30 0
-605 842 0
-605 30 0
606 -605 -35 0
-606 605 0
-606 35 0
607 -925 -604 0
-607 925 0
-607 604 0
608 -12 -1 0
-608 12 0
-608 1 0
609 -608 -14 0
-609 608 0
-609 14 0
610 -926 -607 0
-610 926 0
-610 607 0
611 -45 -2 0
-611 45 0
-611 2 0
612 -611 -36 0
-612 611 0
-612 36 0
613 -927 -610 0
-613 927 0
-613 610 0
614 -27 -715 0
-614 27 0
-614 715 0
615 -614 -46 0
-615 614 0
-615 46 0
616 -928 -613 0
-616 928 0
-616 613 0
617 -40 -753 0
-617 40 0
-617 753 0
618 -617 -715 0
-618 617 0
-618 715 0
619 -929 -616 0
-619 929 0
-619 616 0
620 -46 -2 0
-620 46 0
-620 2 0
621 -620 -47 0
-621 620 0
-621 47 0
622 -930 -619 0
-622 930 0
-622 619 0
623 -21 -7 0
-623 21 0
-623 7 0
624 -623 -771 0
-624 623 0
-624 771 0
625 -931 -622 0
-625 931 0
-625 622 0
626 -56 -22 0
-626 56 0
-626 22 0
627 -932 -625 0
-627 932 0
-627 625 0
628 -739 -697 0
-628 739 0
-628 697 0
629 -628 -22 0
-629 628 0
-629 22 0
630 -933 -627 0
-630 933 0
-630 627 0
631 -771 -12 0
-631 771 0
-631 12 0
632 -631 -13 0
-632 631 0
-632 13 0
633 -934 -630 0
-633 934 0
-633 630 0
634 -837 -37 0
-634 837 0
-634 37 0
635 -634 -694 0
-635 634 0
-635 694 0
636 -935 -633 0
-636 935 0
-636 633 0
637 -587 -23 0
-637 587 0
-637 23 0
638 -936 -636 0
-638 936 0
-638 636 0
639 -722 -694 0
-639 722 0
-639 694 0
640 -639 -697 0
-640 639 0
-640 697 0
641 -937 -638 0
-641 937 0
-641 638 0
642 -211 -35 0
-642 211 0
-642 35 0
643 -938 -641 0
-643 938 0
-643 641 0
644 -783 -33 0
-644 783 0
-644 33 0
645 -644 -48 0
-645 644 0
-645 48 0
646 -939 -643 0
-646 939 0
-646 643 0
647 -719 -16 0
-647 719 0
-647 16 0
648 -647 -714 0
-648 647 0
-648 714 0
649 -940 -646 0
-649 940 0
-649 646 0
650 -39 -721 0
-650 39 0
-650 721 0
651 -650 -701 0
-651 650 0
-651 701 0
652 -941 -649 0
-652 941 0
-652 649 0
653 -25 -7 0
-653 25 0
-653 7 0
654 -653 -17 0
-654 653 0
-654 17 0
655 -942 -652 0
-655 942 0
-655 652 0
656 -49 -744 0
-656 49 0
-656 744 0
657 -656 -27 0
-657 656 0
-657 27 0
658 -943 -655 0
-658 943 0
-658 655 0
659 -194 -697 0
-659 194 0
-659 697 0
660 -944 -658 0
-660 944 0
-660 658 0
661 -37 -783 0
-661 37 0
-661 783 0
662 -661 -728 0
-662 661 0
-662 728 0
663 -945 -660 0
-663 945 0
-663 660 0
664 -17 -696 0
-664 17 0
-664 696 0
665 -664 -750 0
-665 664 0
-665 750 0
666 -946 -663 0
-666 946 0
-666 663 0
667 -30 -710 0
-667 30 0
-667 710 0
668 -667 -758 0
-668 667 0
-668 758 0
669 -947 -666 0
-669 947 0
-669 666 0
670 -766 -12 0
-670 766 0
-670 12 0
671 -670 -6 0
-671 670 0
-671 6 0
672 -948 -669 0
-672 948 0
-672 669 0
673 -722 -26 0
-673 722 0
-673 26 0
674 -673 -47 0
-674 673 0
-674 47 0
675 -949 -672 0
-675 949 0
-675 672 0
676 -837 -41 0
-676 837 0
-676 41 0
677 -676 -776 0
-677 676 0
-677 776 0
678 -950 -675 0
-678 950 0
-678 675 0
679 -776 -744 0
-679 776 0
-679 744 0
680 -679 -23 0
-680 679 0
-680 23 0
681 -951 -678 0
-681 951 0
-681 678 0
682 -40 -24 0
-682 40 0
-682 24 0
683 -682 -26 0
-683 682 0
-683 26 0
684 -952 -681 0
-684 952 0
-684 681 0
685 -864 -817 0
-685 864 0
-685 817 0
686 -685 -829 0
-686 685 0
-686 829 0
687 -953 -684 0
-687 953 0
-687 684 0
-688 -5 0
688 5 0
-689 -4 0
689 4 0
-690 -6 0
690 6 0
-691 -54 0
691 54 0
-692 -52 0
692 52 0
-693 -8 0
693 8 0
-694 -9 0
694 9 0
-695 -57 0
695 57 0
-696 -10 0
696 10 0
-697 -11 0
697 11 0
-698 -60 0
698 60 0
-699 -12 0
699 12 0
-700 -63 0
700 63 0
-701 -15 0
701 15 0
-702 -66 0
702 66 0
-703 -17 0
703 17 0
-704 -69 0
704 69 0
-705 -72 0
705 72 0
-706 -21 0
706 21 0
-707 -7 0
707 7 0
-708 -75 0
708 75 0
-709 -78 0
709 78 0
-710 -18 0
710 18 0
-711 -81 0
711 81 0
-712 -25 0
712 25 0
-713 -84 0
713 84 0
-714 -27 0
714 27 0
-715 -26 0
715 26 0
-716 -87 0
716 87 0
-717 -90 0
717 90 0
-718 -30 0
718 30 0
-719 -29 0
719 29 0
-720 -93 0
720 93 0
-721 -32 0
721 32 0
-722 -33 0
722 33 0
-723 -96 0
723 96 0
-724 -99 0
724 99 0
-725 -28 0
725 28 0
-726 -102 0
726 102 0
-727 -105 0
727 105 0
-728 -31 0
728 31 0
-729 -108 0
729 108 0
-730 -111 0
730 111 0
-731 -35 0
731 35 0
-732 -114 0
732 114 0
-733 -41 0
733 41 0
-734 -117 0
734 117 0
-735 -120 0
735 120 0
-736 -123 0
736 123 0
-737 -40 0
737 40 0
-738 -126 0
738 126 0
-739 -45 0
739 45 0
-740 -129 0
740 129 0
-741 -132 0
741 132 0
-742 -135 0
742 135 0
-743 -138 0
743 138 0
-744 -1 0
744 1 0
-745 -141 0
745 141 0
-746 -13 0
746 13 0
-747 -144 0
747 144 0
-748 -147 0
748 147 0
-749 -150 0
749 150 0
-750 -22 0
750 22 0
-751 -153 0
751 153 0
-752 -20 0
752 20 0
-753 -2 0
753 2 0
-754 -156 0
754 156 0
-755 -159 0
755 159 0
-756 -16 0
756 16 0
-757 -162 0
757 162 0
-758 -3 0
758 3 0
-759 -165 0
759 165 0
-760 -24 0
760 24 0
-761 -168 0
761 168 0
-762 -23 0
762 23 0
-763 -171 0
763 171 0
-764 -174 0
764 174 0
-765 -177 0
765 177 0
-766 -42 0
766 42 0
-767 -19 0
767 19 0
-768 -180 0
768 180 0
-769 -38 0
769 38 0
-770 -183 0
770 183 0
-771 -44 0
771 44 0
-772 -186 0
772 186 0
-773 -189 0
773 189 0
-774 -192 0
774 192 0
-775 -195 0
775 195 0
-776 -46 0
776 46 0
-777 -197 0
777 197 0
-778 -200 0
778 200 0
-779 -203 0
779 203 0
-780 -206 0
780 206 0
-781 -209 0
781 209 0
-782 -212 0
782 212 0
-783 -34 0
783 34 0
-784 -215 0
784 215 0
-785 -217 0
785 217 0
-786 -47 0
786 47 0
-787 -220 0
787 220 0
-788 -223 0
788 223 0
-789 -36 0
789 36 0
-790 -226 0
790 226 0
-791 -229 0
791 229 0
-792 -232 0
792 232 0
-793 -235 0
793 235 0
-794 -238 0
794 238 0
-795 -241 0
795 241 0
-796 -244 0
796 244 0
-797 -247 0
797 247 0
-798 -250 0
798 250 0
-799 -253 0
799 253 0
-800 -256 0
800 256 0
-801 -259 0
801 259 0
-802 -262 0
802 262 0
-803 -265 0
803 265 0
-804 -268 0
804 268 0
-805 -271 0
805 271 0
-806 -274 0
806 274 0
-807 -277 0
807 277 0
-808 -280 0
808 280 0
-809 -283 0
809 283 0
-810 -286 0
810 286 0
-811 -289 0
811 289 0
-812 -292 0
812 292 0
-813 -295 0
813 295 0
-814 -298 0
814 298 0
-815 -301 0
815 301 0
-816 -304 0
816 304 0
-817 -14 0
817 14 0
-818 -307 0
818 307 0
-819 -310 0
819 310 0
-820 -312 0
820 312 0
-821 -315 0
821 315 0
-822 -318 0
822 318 0
-823 -321 0
823 321 0
-824 -324 0
824 324 0
-825 -327 0
825 327 0
-826 -330 0
826 330 0
-827 -333 0
827 333 0
-828 -336 0
828 336 0
-829 -48 0
829 48 0
-830 -339 0
830 339 0
-831 -341 0
831 341 0
-832 -344 0
832 344 0
-833 -347 0
833 347 0
-834 -350 0
834 350 0
-835 -353 0
835 353 0
-836 -356 0
836 356 0
-837 -49 0
837 49 0
-838 -359 0
838 359 0
-839 -362 0
839 362 0
-840 -365 0
840 365 0
-841 -368 0
841 368 0
-842 -43 0
842 43 0
-843 -371 0
843 371 0
-844 -374 0
844 374 0
-845 -377 0
845 377 0
-846 -380 0
846 380 0
-847 -383 0
847 383 0
-848 -386 0
848 386 0
-849 -389 0
849 389 0
-850 -392 0
850 392 0
-851 -39 0
851 39 0
-852 -395 0
852 395 0
-853 -398 0
853 398 0
-854 -401 0
854 401 0
-855 -404 0
855 404 0
-856 -407 0
856 407 0
-857 -410 0
857 410 0
-858 -413 0
858 413 0
-859 -415 0
859 415 0
-860 -418 0
860 418 0
-861 -421 0
861 421 0
-862 -424 0
862 424 0
-863 -427 0
863 427 0
-864 -50 0
864 50 0
-865 -430 0
865 430 0
-866 -433 0
866 433 0
-867 -436 0
867 436 0
-868 -439 0
868 439 0
-869 -442 0
869 442 0
-870 -445 0
870 445 0
-871 -448 0
871 448 0
-872 -451 0
872 451 0
-873 -454 0
873 454 0
-874 -457 0
874 457 0
-875 -460 0
875 460 0
-876 -462 0
876 462 0
-877 -465 0
877 465 0
-878 -468 0
878 468 0
-879 -471 0
879 471 0
-880 -474 0
880 474 0
-881 -477 0
881 477 0
-882 -479 0
882 479 0
-883 -482 0
883 482 0
-884 -485 0
884 485 0
-885 -488 0
885 488 0
-886 -491 0
886 491 0
-887 -494 0
887 494 0
-888 -497 0
888 497 0
-889 -500 0
889 500 0
-890 -503 0
890 503 0
-891 -506 0
891 506 0
-892 -509 0
892 509 0
-893 -512 0
893 512 0
-894 -515 0
894 515 0
-895 -518 0
895 518 0
-896 -521 0
896 521 0
-897 -524 0
897 524 0
-898 -527 0
898 527 0
-899 -530 0
899 530 0
-900 -533 0
900 533 0
-901 -536 0
901 536 0
-902 -539 0
902 539 0
-903 -542 0
903 542 0
-904 -545 0
904 545 0
-905 -548 0
905 548 0
-906 -551 0
906 551 0
-907 -554 0
907 554 0
-908 -556 0
908 556 0
-909 -559 0
909 559 0
-910 -561 0
910 561 0
-911 -564 0
911 564 0
-912 -567 0
912 567 0
-913 -570 0
913 570 0
-914 -573 0
914 573 0
-915 -576 0
915 576 0
-916 -579 0
916 579 0
-917 -582 0
917 582 0
-918 -585 0
918 585 0
-919 -588 0
919 588 0
-920 -591 0
920 591 0
-921 -594 0
921 594 0
-922 -597 0
922 597 0
-923 -600 0
923 600 0
-924 -603 0
924 603 0
-925 -606 0
925 606 0
-926 -609 0
926 609 0
-927 -612 0
927 612 0
-928 -615 0
928 615 0
-929 -618 0
929 618 0
-930 -621 0
930 621 0
-931 -624 0
931 624 0
-932 -626 0
932 626 0
-933 -629 0
933 629 0
-934 -632 0
934 632 0
-935 -635 0
935 635 0
-936 -637 0
936 637 0
-937 -640 0
937 640 0
-938 -642 0
938 642 0
-939 -645 0
939 645 0
-940 -648 0
940 648 0
-941 -651 0
941 651 0
-942 -654 0
942 654 0
-943 -657 0
943 657 0
-944 -659 0
944 659 0
-945 -662 0
945 662 0
-946 -665 0
946 665 0
-947 -668 0
947 668 0
-948 -671 0
948 671 0
-949 -674 0
949 674 0
-950 -677 0
950 677 0
-951 -680 0
951 680 0
-952 -683 0
952 683 0
-953 -686 0
953 686 0
687 0
